peakDumbCharging = 11100; 
Machine = anon_enum(16); 
machineSpeed = [3700,3700,3700,3700,3700,3700,3700,3700,3700,3700,3700,3700,3700,3700,3700,3700]; 
machineLoad = [3700,3700,3700,3700,3700,3700,3700,3700,3700,3700,3700,3700,3700,3700,3700,3700]; 
Car = anon_enum(10); 
demandCar = [3800,11120,9960,8920,9720,15040,19040,12320,1760,3240]; 
arrivalCar = [76,73,71,62,54,42,42,41,39,36]; 
departureCar = [80,80,77,66,58,49,50,46,41,38]; 
